
<<< setup


<<< generate

Version identifier: 12.10.0.0 | 2019-11-26 | 843d4de2ae
CPXPARAM_TimeLimit                               1200
Tried aggregator 3 times.
MIP Presolve eliminated 5168742 rows and 2933584 columns.
MIP Presolve modified 441600 coefficients.
Aggregator did 745 substitutions.
Reduced MIP has 73563 rows, 77221 columns, and 480525 nonzeros.
Reduced MIP has 77171 binaries, 0 generals, 0 SOSs, and 0 indicators.
Presolve time = 7.64 sec. (4597.62 ticks)
Found incumbent of value 2715.000000 after 12.01 sec. (6169.58 ticks)
Probing fixed 2424 vars, tightened 0 bounds.
Probing time = 30.41 sec. (6226.70 ticks)
Tried aggregator 2 times.
Detecting symmetries...
MIP Presolve eliminated 2441 rows and 2424 columns.
MIP Presolve modified 396 coefficients.
Aggregator did 2 substitutions.
Reduced MIP has 71120 rows, 74795 columns, and 464262 nonzeros.
Reduced MIP has 74745 binaries, 0 generals, 0 SOSs, and 0 indicators.
Presolve time = 0.64 sec. (353.77 ticks)
Probing fixed 1 vars, tightened 0 bounds.
Probing time = 0.45 sec. (102.45 ticks)
Clique table members: 261199.
MIP emphasis: balance optimality and feasibility.
MIP search method: dynamic search.
Parallel mode: deterministic, using up to 4 threads.
Root relaxation solution time = 2.78 sec. (1944.23 ticks)

        Nodes                                         Cuts/
   Node  Left     Objective  IInf  Best Integer    Best Bound    ItCnt     Gap

*     0+    0                         2715.0000   112532.0000              --- 
      0     0    59366.0000   508     2715.0000    59366.0000     7393     --- 
*     0+    0                        16442.0000    59366.0000           261.06%
      0     0    59366.0000   508    16442.0000      Cuts: 44     7468  261.06%
      0     0    59366.0000   508    16442.0000    Cuts: 7146     8708  261.06%
      0     0    59366.0000   508    16442.0000     Cuts: 249     8958  261.06%
*     0+    0                        17959.0000    59366.0000           230.56%
*     0+    0                        27003.0000    59366.0000           119.85%
*     0+    0                        52673.0000    59366.0000            12.71%
      0     0        cutoff          52673.0000    59366.0000     8958   12.71%
      0     0    59366.0000   508    52673.0000    Cuts: 6532    11083   12.71%
      0     2    59366.0000   120    52673.0000    59366.0000    11083   12.71%
Elapsed time = 122.78 sec. (59293.56 ticks, tree = 0.02 MB, solutions = 5)
      1     3    59366.0000   360    52673.0000    59366.0000    17856   12.71%
      2     4    59366.0000   370    52673.0000    59366.0000    23700   12.71%
      3     5    59366.0000   402    52673.0000    59366.0000    25288   12.71%
      4     6    59366.0000   329    52673.0000    59366.0000    27321   12.71%
      5     7    59366.0000   327    52673.0000    59366.0000    30565   12.71%
      6     8    59366.0000   334    52673.0000    59366.0000    32812   12.71%
      7     9    59366.0000   315    52673.0000    59366.0000    33414   12.71%
      8     5    59366.0000   291    52673.0000    59366.0000    26578   12.71%
      9    11    59366.0000   319    52673.0000    59366.0000    38013   12.71%
     11    13    59366.0000   315    52673.0000    59366.0000    42473   12.71%
Elapsed time = 148.58 sec. (69933.02 ticks, tree = 0.76 MB, solutions = 5)
     13    15    59366.0000   273    52673.0000    59366.0000    45215   12.71%
     21    20    59366.0000   268    52673.0000    59366.0000    49005   12.71%
     22     3    59366.0000   111    52673.0000    59366.0000    11098   12.71%
     27    18    59366.0000   426    52673.0000    59366.0000    66583   12.71%
     32    30    59366.0000   292    52673.0000    59366.0000    76195   12.71%
     38    31    59366.0000   327    52673.0000    59366.0000    90279   12.71%
     42    26    59366.0000   436    52673.0000    59366.0000    83840   12.71%
     43    32    59366.0000   353    52673.0000    59366.0000    98963   12.71%
     44    19    59366.0000   292    52673.0000    59366.0000    71792   12.71%
     46    43    59366.0000   242    52673.0000    59366.0000   135769   12.71%
Elapsed time = 217.51 sec. (85629.06 ticks, tree = 5.17 MB, solutions = 5)
     47    44    59366.0000   194    52673.0000    59366.0000   135860   12.71%
     51    48    59366.0000   326    52673.0000    59366.0000   139324   12.71%
     53    49    59366.0000   180    52673.0000    59366.0000   139329   12.71%
     56    53    59366.0000   205    52673.0000    59366.0000   147826   12.71%
     65    57    59366.0000   204    52673.0000    59366.0000   149343   12.71%
     76    59    59366.0000   224    52673.0000    59366.0000   150383   12.71%
     82    53    59366.0000   322    52673.0000    59366.0000   150934   12.71%
     85    61    59366.0000   175    52673.0000    59366.0000   157916   12.71%
     94    64    59366.0000   159    52673.0000    59366.0000   158533   12.71%
    105    68    59366.0000   207    52673.0000    59366.0000   167315   12.71%
Elapsed time = 261.70 sec. (99768.86 ticks, tree = 9.35 MB, solutions = 5)
    125    68    infeasible          52673.0000    59366.0000   167914   12.71%
    141    68    59366.0000   184    52673.0000    59366.0000   168706   12.71%
    151    69    59366.0000   180    52673.0000    59366.0000   169814   12.71%
    162    77    59366.0000   196    52673.0000    59366.0000   192976   12.71%
    170    72    59366.0000   433    52673.0000    59366.0000   195158   12.71%
    181    72    infeasible          52673.0000    59366.0000   192620   12.71%
    189    79    59366.0000   193    52673.0000    59366.0000   198793   12.71%
    191    76    59366.0000   227    52673.0000    59366.0000   210454   12.71%
    207    80    59366.0000   116    52673.0000    59366.0000   211509   12.71%
    240    79    59366.0000   248    52673.0000    59366.0000   212651   12.71%
Elapsed time = 301.64 sec. (111031.33 ticks, tree = 13.42 MB, solutions = 5)
    275    89    infeasible          52673.0000    59366.0000   249730   12.71%
    284    87    59366.0000   176    52673.0000    59366.0000   245115   12.71%
    298    86    59366.0000   310    52673.0000    59366.0000   246019   12.71%
    300    83    59366.0000   343    52673.0000    59366.0000   248611   12.71%
    322    89    59366.0000   191    52673.0000    59366.0000   252921   12.71%
    348    93    59366.0000   156    52673.0000    59366.0000   260937   12.71%
    361    93    59366.0000   208    52673.0000    59366.0000   262594   12.71%
    369    92    59366.0000   183    52673.0000    59366.0000   263088   12.71%
    383    95    59366.0000   357    52673.0000    59366.0000   279452   12.71%
    406    92    59366.0000   143    52673.0000    59366.0000   268997   12.71%
Elapsed time = 326.30 sec. (121388.22 ticks, tree = 15.21 MB, solutions = 5)
    425    90    59366.0000   259    52673.0000    59366.0000   269965   12.71%
    435    93    59366.0000   123    52673.0000    59366.0000   270735   12.71%
    460    97    infeasible          52673.0000    59366.0000   303366   12.71%
    487    96    59366.0000   107    52673.0000    59366.0000   299650   12.71%
    496   104    59366.0000   331    52673.0000    59366.0000   312864   12.71%
    505    95    59366.0000   175    52673.0000    59366.0000   305329   12.71%
    528    96    59366.0000   120    52673.0000    59366.0000   306036   12.71%
    539   106    59366.0000   170    52673.0000    59366.0000   329728   12.71%
    550   106    59366.0000   197    52673.0000    59366.0000   330437   12.71%
    556   107    59366.0000   149    52673.0000    59366.0000   331782   12.71%
Elapsed time = 351.97 sec. (132610.59 ticks, tree = 20.57 MB, solutions = 5)
    573   107    59366.0000   188    52673.0000    59366.0000   332819   12.71%
    596   107    59366.0000   152    52673.0000    59366.0000   333535   12.71%
    611   110    59366.0000   215    52673.0000    59366.0000   353724   12.71%
    628   110    59366.0000   180    52673.0000    59366.0000   354525   12.71%
    636   111    59366.0000   270    52673.0000    59366.0000   354895   12.71%
    647   111    59366.0000   184    52673.0000    59366.0000   356929   12.71%
    664   112    59366.0000   166    52673.0000    59366.0000   361097   12.71%
    670   110    59366.0000   232    52673.0000    59366.0000   357812   12.71%
    675   112    59366.0000   183    52673.0000    59366.0000   364150   12.71%
    690   122    59366.0000   219    52673.0000    59366.0000   398163   12.71%
Elapsed time = 379.73 sec. (144277.31 ticks, tree = 28.21 MB, solutions = 5)
    697   123    59366.0000   191    52673.0000    59366.0000   399948   12.71%
    711   126    infeasible          52673.0000    59366.0000   399895   12.71%
    720   122    59366.0000   310    52673.0000    59366.0000   392342   12.71%
    728   136    59366.0000   147    52673.0000    59366.0000   413109   12.71%
    739   116    59366.0000   330    52673.0000    59366.0000   394096   12.71%
    745   130    59366.0000   260    52673.0000    59366.0000   404161   12.71%
    756   137    59366.0000   121    52673.0000    59366.0000   415875   12.71%
    770   142    59366.0000   230    52673.0000    59366.0000   437368   12.71%
    786   143    59366.0000   237    52673.0000    59366.0000   438250   12.71%
    810   143    59366.0000   182    52673.0000    59366.0000   439177   12.71%
Elapsed time = 405.97 sec. (154914.16 ticks, tree = 31.93 MB, solutions = 5)
    830   144    59366.0000   191    52673.0000    59366.0000   439888   12.71%
    866   158    59366.0000   171    52673.0000    59366.0000   456477   12.71%
    881   144    59366.0000   293    52673.0000    59366.0000   443340   12.71%
    913   144    59366.0000   132    52673.0000    59366.0000   443975   12.71%
    926   157    infeasible          52673.0000    59366.0000   479276   12.71%
    930   166    59366.0000   133    52673.0000    59366.0000   496549   12.71%
    932   167    59366.0000   205    52673.0000    59366.0000   498776   12.71%
    952   157    59366.0000   170    52673.0000    59366.0000   481871   12.71%
    967   171    59366.0000   174    52673.0000    59366.0000   503362   12.71%
    979   164    59366.0000   361    52673.0000    59366.0000   488079   12.71%
Elapsed time = 433.61 sec. (165863.32 ticks, tree = 38.03 MB, solutions = 5)
    992   171    59366.0000   340    52673.0000    59366.0000   530358   12.71%
   1006   175    59366.0000   198    52673.0000    59366.0000   533174   12.71%
   1009   158    59366.0000   277    52673.0000    59366.0000   504911   12.71%
   1024   174    59366.0000   153    52673.0000    59366.0000   542914   12.71%
   1038   174    59366.0000   153    52673.0000    59366.0000   545027   12.71%
   1045   175    59366.0000   235    52673.0000    59366.0000   540706   12.71%
   1056   175    59366.0000   115    52673.0000    59366.0000   548612   12.71%
   1074   176    59366.0000   258    52673.0000    59366.0000   544060   12.71%
   1087   195    59366.0000   107    52673.0000    59366.0000   568621   12.71%
   1143   210    59366.0000   239    52673.0000    59366.0000   598802   12.71%
Elapsed time = 472.16 sec. (181119.73 ticks, tree = 61.14 MB, solutions = 5)
   1186   213    59366.0000   115    52673.0000    59366.0000   602062   12.71%
   1219   211    59366.0000   172    52673.0000    59366.0000   606162   12.71%
   1230   217    infeasible          52673.0000    59366.0000   640343   12.71%
   1243   213    59366.0000   162    52673.0000    59366.0000   650718   12.71%
   1253   206    59366.0000   181    52673.0000    59366.0000   653997   12.71%
   1259   199    infeasible          52673.0000    59366.0000   663239   12.71%
   1266   203    59366.0000   274    52673.0000    59366.0000   668630   12.71%
   1276   195    59366.0000   159    52673.0000    59366.0000   694536   12.71%
   1388   198    59366.0000   105    52673.0000    59366.0000   696994   12.71%
   1476   195    59366.0000   294    52673.0000    59366.0000   719432   12.71%
Elapsed time = 631.51 sec. (223183.94 ticks, tree = 54.41 MB, solutions = 5)
   1633   210    59366.0000    86    52673.0000    59366.0000   715553   12.71%
   1790   216    infeasible          52673.0000    59366.0000   737816   12.71%
   1922   219    59366.0000    92    52673.0000    59366.0000   754804   12.71%
   2045   219    59366.0000   112    52673.0000    59366.0000   756906   12.71%
   2128   212    infeasible          52673.0000    59366.0000   784018   12.71%
   2143   213    59366.0000   149    52673.0000    59366.0000   783742   12.71%
   2207   208    59366.0000    93    52673.0000    59366.0000   793481   12.71%
   2309   210    59366.0000    97    52673.0000    59366.0000   796263   12.71%
   2470   203    59366.0000   199    52673.0000    59366.0000   822717   12.71%
   2657   276    59366.0000   102    52673.0000    59366.0000   832254   12.71%
Elapsed time = 731.16 sec. (262871.91 ticks, tree = 56.29 MB, solutions = 5)
   2846   333    59366.0000    97    52673.0000    59366.0000   835401   12.71%
   3031   364    infeasible          52673.0000    59366.0000   854659   12.71%
   3194   369    59366.0000    66    52673.0000    59366.0000   856531   12.71%
   3248   399    59366.0000    63    52673.0000    59366.0000   873415   12.71%
   3506   442    59366.0000    54    52673.0000    59366.0000   872184   12.71%
   3820   569    59366.0000    20    52673.0000    59366.0000   887372   12.71%
   4093   696    59366.0000    24    52673.0000    59366.0000   898974   12.71%
*  4375+  769                        53298.0000    59366.0000            11.39%
   4392   904    59366.0000    43    53298.0000    59366.0000   908124   11.39%
   4610   927    59366.0000    29    53298.0000    59366.0000   909545   11.39%
   4817   928    59366.0000    26    53298.0000    59366.0000   928873   11.39%
Elapsed time = 829.39 sec. (301144.58 ticks, tree = 117.48 MB, solutions = 6)
   5145   945    59366.0000    48    53298.0000    59366.0000   930996   11.39%

Performing restart 1

Repeating presolve.
Tried aggregator 2 times.
MIP Presolve eliminated 19 rows and 19 columns.
MIP Presolve modified 95315 coefficients.
Aggregator did 16 substitutions.
Reduced MIP has 71085 rows, 74760 columns, and 385907 nonzeros.
Reduced MIP has 74710 binaries, 0 generals, 0 SOSs, and 0 indicators.
Presolve time = 0.48 sec. (337.46 ticks)
Tried aggregator 1 time.
Reduced MIP has 71085 rows, 74760 columns, and 385907 nonzeros.
Reduced MIP has 74710 binaries, 0 generals, 0 SOSs, and 0 indicators.
Presolve time = 0.67 sec. (291.85 ticks)
Represolve time = 7.69 sec. (3376.69 ticks)
*  5282+    0                        59366.0000    59366.0000             0.00%
   5282     0        cutoff          59366.0000    59366.0000   944471    0.00%

GUB cover cuts applied:  1
Cover cuts applied:  2
Implied bound cuts applied:  1146
Flow cuts applied:  6
Mixed integer rounding cuts applied:  1160
Gomory fractional cuts applied:  1

Root node processing (before b&c):
  Real time             =  121.78 sec. (59016.84 ticks)
Parallel b&c, 4 threads:
  Real time             =  744.02 sec. (266327.51 ticks)
  Sync time (average)   =  102.27 sec.
  Wait time (average)   =    0.00 sec.
                          ------------
Total (root+branch&cut) =  865.80 sec. (325344.35 ticks)

<<< solve


OBJECTIVE: 59366

<<< post process


<<< done

